c generated by sgen
p cnf 61 132
-2 -3 -4 0
-1 -3 -4 0
-1 -2 -4 0
-1 -2 -3 0
-6 -7 -8 0
-5 -7 -8 0
-5 -6 -8 0
-5 -6 -7 0
-10 -11 -12 0
-9 -11 -12 0
-9 -10 -12 0
-9 -10 -11 0
-14 -15 -16 0
-13 -15 -16 0
-13 -14 -16 0
-13 -14 -15 0
-18 -19 -20 0
-17 -19 -20 0
-17 -18 -20 0
-17 -18 -19 0
-22 -23 -24 0
-21 -23 -24 0
-21 -22 -24 0
-21 -22 -23 0
-26 -27 -28 0
-25 -27 -28 0
-25 -26 -28 0
-25 -26 -27 0
-30 -31 -32 0
-29 -31 -32 0
-29 -30 -32 0
-29 -30 -31 0
-34 -35 -36 0
-33 -35 -36 0
-33 -34 -36 0
-33 -34 -35 0
-38 -39 -40 0
-37 -39 -40 0
-37 -38 -40 0
-37 -38 -39 0
-42 -43 -44 0
-41 -43 -44 0
-41 -42 -44 0
-41 -42 -43 0
-46 -47 -48 0
-45 -47 -48 0
-45 -46 -48 0
-45 -46 -47 0
-50 -51 -52 0
-49 -51 -52 0
-49 -50 -52 0
-49 -50 -51 0
-54 -55 -56 0
-53 -55 -56 0
-53 -54 -56 0
-53 -54 -55 0
-57 -58 -59 0
-57 -58 -60 0
-57 -58 -61 0
-57 -59 -60 0
-57 -59 -61 0
-57 -60 -61 0
-58 -59 -60 0
-58 -59 -61 0
-58 -60 -61 0
-59 -60 -61 0
38 29 53 0
20 29 53 0
20 38 53 0
20 38 29 0
43 32 9 0
27 32 9 0
27 43 9 0
27 43 32 0
41 24 49 0
4 24 49 0
4 41 49 0
4 41 24 0
51 61 10 0
37 61 10 0
37 51 10 0
37 51 61 0
2 34 40 0
6 34 40 0
6 2 40 0
6 2 34 0
1 45 12 0
56 45 12 0
56 1 12 0
56 1 45 0
36 50 13 0
28 50 13 0
28 36 13 0
28 36 50 0
42 46 57 0
33 46 57 0
33 42 57 0
33 42 46 0
5 44 54 0
15 44 54 0
15 5 54 0
15 5 44 0
17 14 3 0
60 14 3 0
60 17 3 0
60 17 14 0
8 59 52 0
31 59 52 0
31 8 52 0
31 8 59 0
55 26 58 0
22 26 58 0
22 55 58 0
22 55 26 0
25 7 18 0
48 7 18 0
48 25 18 0
48 25 7 0
19 11 21 0
35 11 21 0
35 19 21 0
35 19 11 0
30 47 16 0
30 47 23 0
30 47 39 0
30 16 23 0
30 16 39 0
30 23 39 0
47 16 23 0
47 16 39 0
47 23 39 0
16 23 39 0
